&input
  zasr='simple', fildyn='CeO.dyn.xml', flfrc='CeO.fc'
/
