! generated by QEtk 2023-02-16 15:56:36 UTC+8
&CONTROL
  title='Compound 2:bulk:(In 2)(O 3)8:cI(3):Ia-3 (206):primitive', 
  calculation='scf', pseudo_dir='./', verbosity='high', prefix  = 'CeO',
  tprnfor=.true., tstress=.true., forc_conv_thr=1.0d-7, etot_conv_thr=1.0d-9, nstep=100,
/
&SYSTEM
  ibrav= 2, nat= 3, ntyp= 2, celldm(1)=10.338753, 
  occupations = 'fixed', nbnd=19,
  ecutwfc = 80, ecutrho = 800,
/
&ELECTRONS
  conv_thr = 1.0d-14
  mixing_beta = 0.7d0
/
&IONS
/
&CELL
  press_conv_thr=0.01
/
ATOMIC_SPECIES
  Ce 140.116 Ce.paw.z_12.atompaw.wentzcovitch.v1.2.upf
  O 15.9994 O.pbe-n-kjpaw_psl.0.1.UPF
ATOMIC_POSITIONS (crystal)
  Ce  0.0000000000  0.0000000000  0.0000000000
   O  0.2500000000  0.2500000000  0.2500000000
   O  0.7500000000  0.7500000000  0.7500000000
K_POINTS {automatic}
  12 12 12 0 0 0

