O3 Sr Ti
1.0
        3.8989999294         0.0000000000         0.0000000000
        0.0000000000         3.8989999294         0.0000000000
        0.0000000000         0.0000000000         3.8989999294
   Sr   Ti    O
    1    1    3
Direct
     0.500000000         0.500000000         0.500000000
     0.000000000         0.000000000         0.000000000
     0.500000000         0.000000000         0.000000000
     0.000000000         0.500000000         0.000000000
     0.000000000         0.000000000         0.500000000
